c 4 __LINUXTHREADS_OLD__
c 1 __UCLIBC_HAS_CTYPE_TABLES__
c 9 __UCLIBC_HAS_IPV6__
c 2 __UCLIBC_HAS_THREADS_NATIVE__
c 7 __UCLIBC_HAS_SOCKET__
c 10 __UCLIBC_HAS_IPV4__
c 3 __UCLIBC_HAS_XLOCALE__
c 6 __UCLIBC_HAS_LOCALE__
c 8 __LINUXTHREADS_NEW__
c 5 __UCLIBC_HAS_THREADS__
p cnf 10 3
2 -1 -4 -7 -3 -5 6 8 1
-9 2 -1 -4 -3 -5 6 8 1
-10 2 -1 -4 -3 -5 6 8 1
